222 5
10 10 10 10 10 

0 0 0 0 0 0 2 2 54 
0 0 0 0 0 0 1 3 
3 4 4 4 3 5 2 12 4 
4 8 7 5 7 4 1 5 
7 4 5 8 2 6 1 6 
7 10 9 6 7 5 1 7 
6 10 10 6 10 10 2 11 8 
2 2 6 6 7 8 1 9 
5 10 10 10 9 7 1 10 
3 6 6 10 7 10 1 13 
4 7 4 9 6 8 1 13 
5 8 8 4 6 6 1 13 
1 6 8 7 9 5 1 14 
4 9 7 6 8 9 2 17 15 
2 3 8 4 10 7 1 16 
4 9 5 7 8 6 2 25 18 
4 8 8 10 9 5 1 18 
6 10 8 7 4 10 1 19 
9 5 10 4 5 5 1 20 
1 9 7 5 10 7 3 29 27 21 
10 10 7 10 10 7 2 33 22 
3 6 5 6 6 6 1 23 
9 10 6 10 9 9 1 24 
5 7 5 10 7 8 2 32 26 
8 10 10 6 7 7 2 38 28 
6 8 9 6 6 10 1 28 
10 9 9 10 8 10 1 28 
3 9 8 10 6 8 1 30 
2 7 9 6 6 7 2 36 33 
4 9 5 10 8 8 1 31 
8 9 10 9 10 5 2 36 34 
2 7 8 8 8 7 3 47 38 35 
3 8 10 9 6 7 1 34 
10 9 9 10 5 8 2 47 35 
10 6 9 9 4 10 1 37 
1 6 7 10 10 10 2 47 40 
5 9 5 8 10 10 1 39 
10 8 10 9 7 10 1 39 
2 10 7 4 10 7 1 40 
9 5 9 10 10 9 1 41 
1 10 6 8 10 10 2 52 42 
1 4 9 10 8 10 1 43 
7 7 5 5 10 8 1 44 
10 9 6 9 9 10 1 45 
5 6 7 7 10 6 1 46 
6 6 8 7 8 5 1 48 
5 8 6 4 4 9 1 48 
3 4 5 6 9 8 2 51 49 
8 9 8 9 4 4 1 50 
4 8 8 7 8 9 1 53 
8 5 10 7 7 6 1 53 
7 9 10 8 8 4 1 53 
0 0 0 0 0 0 1 222 
0 0 0 0 0 0 2 55 56 
5 0 0 0 0 2 2 59 57 
9 0 0 0 0 8 2 59 57 
9 0 0 0 0 8 1 58 
7 0 0 0 0 10 2 62 60 
6 0 0 0 0 8 1 60 
3 0 0 0 0 8 1 61 
3 0 0 0 0 6 1 63 
7 0 0 0 0 6 1 63 
5 0 0 0 0 9 1 64 
9 0 0 0 0 10 1 65 
0 0 0 0 0 0 2 66 78 
0 0 0 0 0 0 3 67 68 71 
7 0 0 7 0 0 2 70 69 
6 0 0 2 0 0 1 69 
6 0 0 9 0 0 1 72 
8 0 0 7 0 0 1 72 
5 0 0 10 0 0 1 72 
3 0 0 4 0 0 1 73 
3 0 0 10 0 0 1 74 
9 0 0 10 0 0 1 75 
9 0 0 10 0 0 1 76 
6 0 0 6 0 0 1 77 
0 0 0 0 0 0 2 120 132 
0 0 0 0 0 0 3 79 117 118 
7 0 5 7 1 6 1 80 
4 0 9 5 9 4 1 81 
10 0 9 8 9 5 3 116 115 82 
4 0 10 8 6 1 1 83 
4 0 9 9 7 5 1 84 
1 0 10 8 7 9 1 85 
4 0 7 10 10 9 1 86 
2 0 6 5 7 8 1 87 
7 0 3 4 8 2 1 88 
3 0 6 8 7 10 3 114 113 89 
2 0 8 10 9 10 2 112 90 
2 0 7 9 8 4 1 91 
3 0 9 10 5 10 1 92 
7 0 3 8 10 4 2 111 93 
10 0 8 10 8 5 1 94 
7 0 9 8 4 8 2 110 95 
10 0 7 7 5 10 2 109 96 
2 0 6 4 5 8 1 97 
5 0 4 9 9 10 1 98 
4 0 5 9 6 8 1 99 
3 0 6 8 9 9 1 100 
5 0 9 4 10 7 1 101 
6 0 10 7 10 9 1 102 
1 0 8 4 7 10 1 103 
9 0 8 8 9 4 1 104 
10 0 10 7 10 6 1 105 
6 0 6 7 9 10 1 106 
3 0 7 10 10 10 1 107 
3 0 8 8 5 10 1 108 
9 0 7 9 10 7 1 119 
2 0 10 9 6 10 1 119 
3 0 6 5 8 7 1 119 
3 0 10 7 5 10 1 119 
7 0 10 10 5 10 1 119 
4 0 10 5 5 6 1 119 
9 0 8 10 10 10 1 119 
10 0 6 7 9 6 1 119 
2 0 5 4 10 9 1 119 
6 0 6 10 9 7 1 119 
10 0 10 5 4 7 1 119 
0 0 0 0 0 0 1 222 
0 0 0 0 0 0 2 121 122 
7 0 0 0 0 5 1 123 
10 0 0 0 0 6 2 126 125 
2 0 0 0 0 10 1 124 
6 0 0 0 0 5 2 130 126 
8 0 0 0 0 5 2 130 127 
8 0 0 0 0 8 1 127 
7 0 0 0 0 10 1 128 
5 0 0 0 0 8 1 129 
10 0 0 0 0 9 1 131 
3 0 0 0 0 9 1 131 
0 0 0 0 0 0 2 164 176 
0 0 0 0 0 0 2 133 144 
9 7 2 3 0 0 1 134 
9 3 6 10 0 0 1 135 
5 9 10 10 0 0 1 136 
8 10 6 6 0 0 1 137 
7 8 7 10 0 0 2 143 138 
1 10 6 10 0 0 1 139 
1 8 8 5 0 0 1 140 
3 7 9 7 0 0 3 146 145 141 
5 10 4 10 0 0 2 148 142 
10 9 8 2 0 0 3 152 150 147 
1 10 10 4 0 0 2 152 147 
10 9 8 6 0 0 2 148 147 
7 6 5 10 0 0 2 152 149 
1 4 10 10 0 0 2 152 151 
9 4 8 10 0 0 1 149 
6 10 8 7 0 0 1 149 
4 9 9 6 0 0 1 151 
7 3 10 10 0 0 1 151 
9 10 9 9 0 0 1 153 
7 7 8 6 0 0 1 153 
9 5 8 7 0 0 1 154 
10 10 9 7 0 0 2 158 155 
2 9 6 9 0 0 1 156 
10 5 10 5 0 0 1 157 
5 6 6 8 0 0 1 159 
10 6 6 10 0 0 1 159 
4 10 8 10 0 0 1 160 
6 4 10 6 0 0 1 161 
1 7 5 8 0 0 1 162 
8 10 6 4 0 0 1 163 
0 0 0 0 0 0 1 222 
0 0 0 0 0 0 1 165 
2 0 0 0 0 1 2 169 166 
3 0 0 0 0 10 2 171 167 
10 0 0 0 0 9 1 168 
6 0 0 0 0 10 2 174 170 
2 0 0 0 0 4 1 171 
7 0 0 0 0 7 1 172 
3 0 0 0 0 10 1 172 
6 0 0 0 0 9 1 173 
3 0 0 0 0 8 1 175 
8 0 0 0 0 7 1 175 
0 0 0 0 0 0 2 198 210 
0 0 0 0 0 0 1 177 
4 4 0 0 2 0 2 186 178 
9 10 0 0 5 0 1 179 
5 4 0 0 5 0 2 188 180 
1 8 0 0 8 0 1 181 
7 10 0 0 7 0 1 182 
5 10 0 0 6 0 2 189 183 
9 10 0 0 10 0 1 184 
5 8 0 0 8 0 2 196 185 
3 10 0 0 10 0 1 187 
8 5 0 0 10 0 1 187 
1 10 0 0 8 0 2 193 190 
6 6 0 0 4 0 1 189 
9 8 0 0 8 0 2 196 191 
6 3 0 0 10 0 1 191 
4 5 0 0 8 0 1 192 
6 10 0 0 10 0 1 194 
9 10 0 0 9 0 1 194 
7 7 0 0 8 0 1 195 
6 10 0 0 8 0 1 197 
1 2 0 0 6 0 1 197 
0 0 0 0 0 0 1 222 
0 0 0 0 0 0 1 199 
9 0 0 0 2 0 1 200 
3 0 0 0 8 0 2 202 201 
4 0 0 0 10 0 1 203 
6 0 0 0 10 0 1 203 
10 0 0 0 3 0 2 205 204 
10 0 0 0 9 0 2 207 206 
3 0 0 0 8 0 2 207 206 
6 0 0 0 9 0 1 208 
6 0 0 0 6 0 1 208 
8 0 0 0 10 0 1 209 
0 0 0 0 0 0 1 222 
0 0 0 0 0 0 4 211 213 217 219 
4 0 0 9 0 0 1 212 
7 0 0 2 0 0 1 214 
2 0 0 10 0 0 1 214 
9 0 0 8 0 0 1 215 
5 0 0 10 0 0 1 216 
3 0 0 6 0 0 1 218 
2 0 0 6 0 0 1 218 
7 0 0 6 0 0 1 220 
10 0 0 10 0 0 1 220 
7 0 0 8 0 0 1 221 
0 0 0 0 0 0 1 222 
0 0 0 0 0 0 0 
